isocif-output
1.0
       11.1569795609         0.0000000000         0.0000000000
        0.0000000000         7.3548297882         0.0000000000
        0.0000000000         0.0000000000        10.4266996384
    Y   Ni    O
   16   16   48
Direct
     0.962010026         0.250000000         0.260039985
     0.962010026         0.250000000         0.760039985
     0.462009996         0.250000000         0.260039985
     0.462009996         0.250000000         0.760039985
     0.212009996         0.250000000         0.989960015
     0.212009996         0.250000000         0.489960015
     0.712010026         0.250000000         0.989960015
     0.712010026         0.250000000         0.489960015
     0.037990000         0.750000000         0.739960015
     0.037990000         0.750000000         0.239960000
     0.537989974         0.750000000         0.739960015
     0.537989974         0.750000000         0.239960000
     0.287990004         0.750000000         0.510039985
     0.287990004         0.750000000         0.010040000
     0.787989974         0.750000000         0.510039985
     0.787989974         0.750000000         0.010040000
     0.000000000         0.000000000         0.000000000
     0.000000000         0.000000000         0.500000000
     0.500000000         0.000000000         0.000000000
     0.500000000         0.000000000         0.500000000
     0.250000000         0.500000000         0.250000000
     0.250000000         0.500000000         0.750000000
     0.750000000         0.500000000         0.250000000
     0.750000000         0.500000000         0.750000000
     0.000000000         0.500000000         0.000000000
     0.000000000         0.500000000         0.500000000
     0.500000000         0.500000000         0.000000000
     0.500000000         0.500000000         0.500000000
     0.250000000         0.000000000         0.250000000
     0.250000000         0.000000000         0.750000000
     0.750000000         0.000000000         0.250000000
     0.750000000         0.000000000         0.750000000
     0.150969997         0.549950004         0.097309999
     0.150969997         0.549950004         0.597310007
     0.650969982         0.549950004         0.097309999
     0.650969982         0.549950004         0.597310007
     0.400970012         0.950049996         0.152689993
     0.400970012         0.950049996         0.652689993
     0.900969982         0.950049996         0.152689993
     0.900969982         0.950049996         0.652689993
     0.849030018         0.049950000         0.902689993
     0.849030018         0.049950000         0.402689993
     0.349029988         0.049950000         0.902689993
     0.349029988         0.049950000         0.402689993
     0.099030003         0.450049996         0.347310007
     0.099030003         0.450049996         0.847310007
     0.599030018         0.450049996         0.347310007
     0.599030018         0.450049996         0.847310007
     0.849030018         0.450049996         0.902689993
     0.849030018         0.450049996         0.402689993
     0.349029988         0.450049996         0.902689993
     0.349029988         0.450049996         0.402689993
     0.099030003         0.049950000         0.347310007
     0.099030003         0.049950000         0.847310007
     0.599030018         0.049950000         0.347310007
     0.599030018         0.049950000         0.847310007
     0.150969997         0.950049996         0.097309999
     0.150969997         0.950049996         0.597310007
     0.650969982         0.950049996         0.097309999
     0.650969982         0.950049996         0.597310007
     0.400970012         0.549950004         0.152689993
     0.400970012         0.549950004         0.652689993
     0.900969982         0.549950004         0.152689993
     0.900969982         0.549950004         0.652689993
     0.015490000         0.250000000         0.051240001
     0.015490000         0.250000000         0.551240027
     0.515489995         0.250000000         0.051240001
     0.515489995         0.250000000         0.551240027
     0.265489995         0.250000000         0.198760003
     0.265489995         0.250000000         0.698759973
     0.765489995         0.250000000         0.198760003
     0.765489995         0.250000000         0.698759973
     0.984510005         0.750000000         0.948759973
     0.984510005         0.750000000         0.448760003
     0.484510005         0.750000000         0.948759973
     0.484510005         0.750000000         0.448760003
     0.234510005         0.750000000         0.301239997
     0.234510005         0.750000000         0.801240027
     0.734510005         0.750000000         0.301239997
     0.734510005         0.750000000         0.801240027
